\ Model matlab
\ LP format - for model browsing. Use MPS format to capture full model detail.
Minimize
  0 C4 + C6 + C7 + 0 C15 + C18 + C19 + 0 C30 + 0 C31 + [ - 2 C0 * C6
   - 2 C1 * C7 - 2 C2 * C18 - 2 C3 * C19 ] / 2 
Subject To
 R0: <= 0
 R1: 0.01 C3 + C6 - C7 <= 10
 R2: <= 0
 R3: - C1 - C8 + C9 <= -75
 R4: <= 0
 R5: - 0.01 C3 - C6 + C7 <= -10
 R6: <= 0
 R7: - C1 + C8 - C9 <= 75
 R8: C3 <= 100
 R9: - C3 <= 15
 R10: - C5 <= 0
 R11: C5 <= 80
 R12: - C3 + 1e+10 C10 <= 9.9999999e+09
 R13: C3 + 1e+10 C11 <= 9.999999985e+09
 R14: C5 + 1e+10 C12 <= 1e+10
 R15: - C5 + 1e+10 C13 <= 9.99999992e+09
 R16: C6 - 1e+10 C10 <= 0
 R17: C7 - 1e+10 C11 <= 0
 R18: C8 - 1e+10 C12 <= 0
 R19: C9 - 1e+10 C13 <= 0
 R20: - C6 <= 0
 R21: - C7 <= 0
 R22: - C8 <= 0
 R23: - C9 <= 0
 R24: 0.01 C14 + C18 - C19 <= 20
 R25: <= 0
 R26: - C2 - C20 + C21 <= -75
 R27: - C3 - C22 + C23 <= -75
 R28: - 0.01 C14 - C18 + C19 <= -20
 R29: <= 0
 R30: - C2 + C20 - C21 <= 75
 R31: - C3 + C22 - C23 <= 75
 R32: C14 <= 100
 R33: - C14 <= 15
 R34: - C16 <= 0
 R35: C16 <= 80
 R36: - C17 <= 0
 R37: C17 <= 80
 R38: - C14 + 1e+10 C24 <= 9.9999999e+09
 R39: C14 + 1e+10 C25 <= 9.999999985e+09
 R40: C16 + 1e+10 C26 <= 1e+10
 R41: - C16 + 1e+10 C27 <= 9.99999992e+09
 R42: C17 + 1e+10 C28 <= 1e+10
 R43: - C17 + 1e+10 C29 <= 9.99999992e+09
 R44: C18 - 1e+10 C24 <= 0
 R45: C19 - 1e+10 C25 <= 0
 R46: C20 - 1e+10 C26 <= 0
 R47: C21 - 1e+10 C27 <= 0
 R48: C22 - 1e+10 C28 <= 0
 R49: C23 - 1e+10 C29 <= 0
 R50: - C18 <= 0
 R51: - C19 <= 0
 R52: - C20 <= 0
 R53: - C21 <= 0
 R54: - C22 <= 0
 R55: - C23 <= 0
Bounds
Binaries
 C12 C13 C14 C15 C26 C27 C28 C29 C30 C31
End
